100 4950
1 2 4
1 3 2
1 4 2
1 5 3
1 6 2
1 7 3
1 8 4
1 9 4
1 10 5
1 11 1
1 12 1
1 13 3
1 14 1
1 15 1
1 16 5
1 17 3
1 18 5
1 19 5
1 20 4
1 21 5
1 22 2
1 23 1
1 24 1
1 25 3
1 26 1
1 27 4
1 28 2
1 29 2
1 30 2
1 31 4
1 32 2
1 33 5
1 34 5
1 35 5
1 36 3
1 37 2
1 38 1
1 39 5
1 40 2
1 41 2
1 42 3
1 43 4
1 44 4
1 45 5
1 46 2
1 47 5
1 48 3
1 49 4
1 50 2
1 51 3
1 52 5
1 53 2
1 54 2
1 55 1
1 56 4
1 57 5
1 58 1
1 59 3
1 60 1
1 61 4
1 62 1
1 63 5
1 64 3
1 65 5
1 66 4
1 67 4
1 68 4
1 69 2
1 70 5
1 71 4
1 72 4
1 73 3
1 74 3
1 75 5
1 76 3
1 77 1
1 78 1
1 79 3
1 80 3
1 81 3
1 82 5
1 83 3
1 84 4
1 85 2
1 86 1
1 87 3
1 88 5
1 89 5
1 90 2
1 91 5
1 92 2
1 93 1
1 94 1
1 95 5
1 96 5
1 97 3
1 98 2
1 99 1
1 100 3
2 3 1
2 4 5
2 5 2
2 6 4
2 7 4
2 8 3
2 9 2
2 10 1
2 11 3
2 12 2
2 13 1
2 14 4
2 15 4
2 16 2
2 17 5
2 18 3
2 19 1
2 20 4
2 21 2
2 22 5
2 23 2
2 24 4
2 25 4
2 26 4
2 27 3
2 28 1
2 29 1
2 30 1
2 31 3
2 32 1
2 33 5
2 34 3
2 35 2
2 36 3
2 37 3
2 38 3
2 39 5
2 40 5
2 41 3
2 42 4
2 43 1
2 44 4
2 45 1
2 46 1
2 47 3
2 48 1
2 49 4
2 50 2
2 51 3
2 52 4
2 53 2
2 54 3
2 55 1
2 56 2
2 57 1
2 58 2
2 59 2
2 60 4
2 61 5
2 62 5
2 63 4
2 64 3
2 65 1
2 66 4
2 67 5
2 68 5
2 69 4
2 70 5
2 71 4
2 72 1
2 73 1
2 74 5
2 75 5
2 76 2
2 77 1
2 78 3
2 79 3
2 80 3
2 81 1
2 82 2
2 83 5
2 84 4
2 85 5
2 86 2
2 87 3
2 88 4
2 89 5
2 90 3
2 91 1
2 92 1
2 93 2
2 94 2
2 95 5
2 96 4
2 97 2
2 98 5
2 99 4
2 100 5
3 4 5
3 5 5
3 6 5
3 7 2
3 8 2
3 9 3
3 10 5
3 11 2
3 12 2
3 13 5
3 14 1
3 15 5
3 16 3
3 17 2
3 18 1
3 19 2
3 20 4
3 21 4
3 22 5
3 23 1
3 24 5
3 25 3
3 26 3
3 27 1
3 28 1
3 29 3
3 30 4
3 31 4
3 32 2
3 33 1
3 34 1
3 35 5
3 36 1
3 37 4
3 38 3
3 39 5
3 40 1
3 41 4
3 42 5
3 43 2
3 44 1
3 45 2
3 46 4
3 47 5
3 48 2
3 49 1
3 50 2
3 51 2
3 52 5
3 53 4
3 54 3
3 55 5
3 56 4
3 57 5
3 58 4
3 59 5
3 60 5
3 61 5
3 62 2
3 63 4
3 64 5
3 65 2
3 66 2
3 67 5
3 68 1
3 69 3
3 70 1
3 71 2
3 72 1
3 73 3
3 74 2
3 75 4
3 76 4
3 77 5
3 78 4
3 79 5
3 80 5
3 81 1
3 82 3
3 83 5
3 84 3
3 85 2
3 86 4
3 87 3
3 88 1
3 89 4
3 90 4
3 91 2
3 92 5
3 93 2
3 94 3
3 95 4
3 96 5
3 97 4
3 98 4
3 99 4
3 100 4
4 5 5
4 6 1
4 7 4
4 8 2
4 9 3
4 10 1
4 11 3
4 12 1
4 13 3
4 14 1
4 15 4
4 16 5
4 17 3
4 18 5
4 19 5
4 20 5
4 21 5
4 22 4
4 23 5
4 24 4
4 25 4
4 26 4
4 27 3
4 28 2
4 29 3
4 30 5
4 31 1
4 32 4
4 33 3
4 34 4
4 35 5
4 36 2
4 37 4
4 38 1
4 39 4
4 40 2
4 41 4
4 42 2
4 43 5
4 44 5
4 45 3
4 46 1
4 47 1
4 48 4
4 49 5
4 50 5
4 51 4
4 52 4
4 53 4
4 54 3
4 55 1
4 56 3
4 57 5
4 58 1
4 59 3
4 60 1
4 61 1
4 62 2
4 63 3
4 64 4
4 65 1
4 66 4
4 67 5
4 68 3
4 69 2
4 70 3
4 71 1
4 72 5
4 73 2
4 74 5
4 75 4
4 76 3
4 77 3
4 78 3
4 79 4
4 80 4
4 81 2
4 82 3
4 83 1
4 84 2
4 85 5
4 86 4
4 87 4
4 88 5
4 89 4
4 90 4
4 91 4
4 92 2
4 93 5
4 94 4
4 95 4
4 96 5
4 97 1
4 98 3
4 99 2
4 100 5
5 6 3
5 7 4
5 8 3
5 9 1
5 10 2
5 11 4
5 12 2
5 13 4
5 14 1
5 15 1
5 16 4
5 17 2
5 18 4
5 19 4
5 20 1
5 21 5
5 22 5
5 23 3
5 24 3
5 25 1
5 26 4
5 27 2
5 28 3
5 29 1
5 30 5
5 31 1
5 32 3
5 33 2
5 34 3
5 35 5
5 36 1
5 37 5
5 38 5
5 39 5
5 40 5
5 41 2
5 42 2
5 43 2
5 44 5
5 45 2
5 46 5
5 47 4
5 48 5
5 49 2
5 50 5
5 51 5
5 52 3
5 53 3
5 54 2
5 55 2
5 56 5
5 57 3
5 58 5
5 59 2
5 60 4
5 61 2
5 62 4
5 63 1
5 64 5
5 65 1
5 66 3
5 67 2
5 68 5
5 69 1
5 70 5
5 71 1
5 72 5
5 73 2
5 74 5
5 75 3
5 76 5
5 77 4
5 78 2
5 79 4
5 80 1
5 81 4
5 82 4
5 83 2
5 84 5
5 85 3
5 86 5
5 87 5
5 88 1
5 89 5
5 90 2
5 91 4
5 92 3
5 93 1
5 94 2
5 95 1
5 96 1
5 97 1
5 98 5
5 99 2
5 100 1
6 7 5
6 8 5
6 9 5
6 10 4
6 11 2
6 12 2
6 13 4
6 14 3
6 15 3
6 16 2
6 17 2
6 18 3
6 19 1
6 20 1
6 21 4
6 22 3
6 23 5
6 24 1
6 25 2
6 26 3
6 27 5
6 28 2
6 29 5
6 30 1
6 31 2
6 32 2
6 33 5
6 34 2
6 35 1
6 36 5
6 37 3
6 38 3
6 39 4
6 40 4
6 41 1
6 42 3
6 43 1
6 44 3
6 45 5
6 46 4
6 47 4
6 48 5
6 49 4
6 50 1
6 51 2
6 52 5
6 53 4
6 54 3
6 55 2
6 56 3
6 57 4
6 58 4
6 59 4
6 60 4
6 61 5
6 62 1
6 63 2
6 64 3
6 65 5
6 66 1
6 67 5
6 68 2
6 69 1
6 70 1
6 71 5
6 72 4
6 73 4
6 74 3
6 75 5
6 76 4
6 77 1
6 78 4
6 79 5
6 80 1
6 81 4
6 82 1
6 83 1
6 84 4
6 85 5
6 86 2
6 87 5
6 88 3
6 89 5
6 90 3
6 91 1
6 92 4
6 93 2
6 94 1
6 95 2
6 96 5
6 97 2
6 98 2
6 99 2
6 100 1
7 8 2
7 9 5
7 10 4
7 11 1
7 12 5
7 13 4
7 14 1
7 15 2
7 16 4
7 17 5
7 18 4
7 19 5
7 20 1
7 21 2
7 22 4
7 23 3
7 24 4
7 25 1
7 26 3
7 27 5
7 28 5
7 29 3
7 30 1
7 31 1
7 32 3
7 33 2
7 34 4
7 35 1
7 36 3
7 37 5
7 38 3
7 39 1
7 40 5
7 41 4
7 42 2
7 43 4
7 44 3
7 45 5
7 46 3
7 47 2
7 48 5
7 49 3
7 50 2
7 51 4
7 52 5
7 53 5
7 54 5
7 55 5
7 56 4
7 57 4
7 58 1
7 59 4
7 60 3
7 61 5
7 62 5
7 63 4
7 64 1
7 65 2
7 66 3
7 67 1
7 68 4
7 69 2
7 70 1
7 71 1
7 72 1
7 73 1
7 74 2
7 75 2
7 76 2
7 77 3
7 78 4
7 79 1
7 80 3
7 81 5
7 82 1
7 83 1
7 84 2
7 85 2
7 86 1
7 87 5
7 88 4
7 89 2
7 90 2
7 91 5
7 92 5
7 93 5
7 94 5
7 95 1
7 96 5
7 97 1
7 98 5
7 99 1
7 100 5
8 9 3
8 10 3
8 11 4
8 12 3
8 13 3
8 14 4
8 15 1
8 16 3
8 17 2
8 18 5
8 19 3
8 20 4
8 21 5
8 22 4
8 23 3
8 24 4
8 25 2
8 26 5
8 27 2
8 28 1
8 29 3
8 30 3
8 31 2
8 32 3
8 33 2
8 34 1
8 35 1
8 36 1
8 37 4
8 38 4
8 39 3
8 40 2
8 41 2
8 42 3
8 43 3
8 44 2
8 45 1
8 46 5
8 47 4
8 48 5
8 49 5
8 50 2
8 51 1
8 52 1
8 53 4
8 54 3
8 55 5
8 56 5
8 57 3
8 58 4
8 59 4
8 60 5
8 61 4
8 62 5
8 63 3
8 64 5
8 65 5
8 66 5
8 67 4
8 68 2
8 69 4
8 70 4
8 71 4
8 72 2
8 73 4
8 74 4
8 75 4
8 76 5
8 77 5
8 78 5
8 79 3
8 80 5
8 81 2
8 82 2
8 83 2
8 84 4
8 85 2
8 86 3
8 87 2
8 88 2
8 89 3
8 90 5
8 91 2
8 92 2
8 93 2
8 94 1
8 95 1
8 96 3
8 97 4
8 98 4
8 99 2
8 100 2
9 10 4
9 11 5
9 12 5
9 13 4
9 14 2
9 15 3
9 16 5
9 17 5
9 18 2
9 19 3
9 20 3
9 21 1
9 22 3
9 23 2
9 24 4
9 25 3
9 26 1
9 27 5
9 28 2
9 29 4
9 30 4
9 31 1
9 32 1
9 33 2
9 34 3
9 35 2
9 36 2
9 37 4
9 38 3
9 39 5
9 40 2
9 41 2
9 42 3
9 43 2
9 44 1
9 45 5
9 46 3
9 47 2
9 48 3
9 49 5
9 50 4
9 51 2
9 52 5
9 53 2
9 54 5
9 55 1
9 56 3
9 57 2
9 58 3
9 59 5
9 60 5
9 61 3
9 62 2
9 63 5
9 64 2
9 65 5
9 66 3
9 67 5
9 68 1
9 69 2
9 70 3
9 71 5
9 72 4
9 73 5
9 74 5
9 75 3
9 76 4
9 77 3
9 78 2
9 79 2
9 80 1
9 81 5
9 82 4
9 83 4
9 84 5
9 85 3
9 86 3
9 87 5
9 88 3
9 89 1
9 90 4
9 91 3
9 92 2
9 93 2
9 94 3
9 95 1
9 96 2
9 97 1
9 98 1
9 99 3
9 100 1
10 11 5
10 12 1
10 13 4
10 14 2
10 15 3
10 16 4
10 17 4
10 18 1
10 19 4
10 20 1
10 21 1
10 22 1
10 23 3
10 24 5
10 25 1
10 26 1
10 27 3
10 28 4
10 29 4
10 30 3
10 31 1
10 32 3
10 33 5
10 34 3
10 35 4
10 36 5
10 37 2
10 38 1
10 39 2
10 40 5
10 41 1
10 42 2
10 43 2
10 44 5
10 45 4
10 46 4
10 47 3
10 48 4
10 49 2
10 50 1
10 51 2
10 52 4
10 53 4
10 54 4
10 55 3
10 56 5
10 57 1
10 58 4
10 59 1
10 60 4
10 61 1
10 62 2
10 63 4
10 64 5
10 65 3
10 66 3
10 67 2
10 68 2
10 69 4
10 70 1
10 71 3
10 72 2
10 73 1
10 74 3
10 75 3
10 76 2
10 77 2
10 78 1
10 79 2
10 80 4
10 81 5
10 82 2
10 83 5
10 84 2
10 85 2
10 86 4
10 87 3
10 88 3
10 89 3
10 90 3
10 91 1
10 92 3
10 93 4
10 94 3
10 95 5
10 96 5
10 97 2
10 98 3
10 99 1
10 100 4
11 12 1
11 13 5
11 14 5
11 15 2
11 16 3
11 17 1
11 18 3
11 19 3
11 20 1
11 21 1
11 22 2
11 23 2
11 24 3
11 25 2
11 26 3
11 27 5
11 28 1
11 29 1
11 30 4
11 31 1
11 32 5
11 33 3
11 34 4
11 35 3
11 36 2
11 37 4
11 38 1
11 39 1
11 40 1
11 41 5
11 42 4
11 43 1
11 44 2
11 45 1
11 46 1
11 47 2
11 48 3
11 49 1
11 50 1
11 51 2
11 52 3
11 53 5
11 54 1
11 55 4
11 56 5
11 57 4
11 58 3
11 59 1
11 60 1
11 61 1
11 62 1
11 63 5
11 64 2
11 65 2
11 66 1
11 67 2
11 68 1
11 69 5
11 70 1
11 71 5
11 72 4
11 73 1
11 74 3
11 75 5
11 76 3
11 77 5
11 78 1
11 79 2
11 80 5
11 81 5
11 82 3
11 83 2
11 84 4
11 85 2
11 86 5
11 87 5
11 88 5
11 89 1
11 90 2
11 91 1
11 92 2
11 93 4
11 94 1
11 95 1
11 96 5
11 97 3
11 98 1
11 99 3
11 100 2
12 13 5
12 14 5
12 15 1
12 16 4
12 17 5
12 18 2
12 19 1
12 20 5
12 21 3
12 22 3
12 23 2
12 24 1
12 25 5
12 26 5
12 27 2
12 28 1
12 29 5
12 30 5
12 31 4
12 32 1
12 33 2
12 34 3
12 35 5
12 36 2
12 37 3
12 38 4
12 39 3
12 40 4
12 41 3
12 42 4
12 43 3
12 44 2
12 45 4
12 46 5
12 47 3
12 48 3
12 49 1
12 50 5
12 51 2
12 52 2
12 53 2
12 54 5
12 55 2
12 56 2
12 57 1
12 58 1
12 59 1
12 60 4
12 61 5
12 62 1
12 63 5
12 64 1
12 65 5
12 66 3
12 67 1
12 68 4
12 69 1
12 70 2
12 71 5
12 72 5
12 73 4
12 74 1
12 75 4
12 76 1
12 77 2
12 78 1
12 79 2
12 80 4
12 81 2
12 82 5
12 83 2
12 84 1
12 85 4
12 86 1
12 87 5
12 88 1
12 89 5
12 90 4
12 91 2
12 92 5
12 93 4
12 94 3
12 95 3
12 96 5
12 97 5
12 98 3
12 99 5
12 100 5
13 14 2
13 15 1
13 16 2
13 17 1
13 18 1
13 19 2
13 20 3
13 21 3
13 22 5
13 23 2
13 24 1
13 25 2
13 26 5
13 27 1
13 28 2
13 29 5
13 30 1
13 31 2
13 32 2
13 33 5
13 34 4
13 35 3
13 36 1
13 37 1
13 38 4
13 39 3
13 40 4
13 41 3
13 42 2
13 43 1
13 44 5
13 45 1
13 46 3
13 47 5
13 48 2
13 49 1
13 50 3
13 51 4
13 52 2
13 53 4
13 54 4
13 55 2
13 56 3
13 57 4
13 58 3
13 59 5
13 60 4
13 61 5
13 62 1
13 63 3
13 64 2
13 65 2
13 66 2
13 67 2
13 68 2
13 69 4
13 70 3
13 71 3
13 72 1
13 73 5
13 74 1
13 75 5
13 76 5
13 77 2
13 78 1
13 79 4
13 80 1
13 81 1
13 82 4
13 83 5
13 84 1
13 85 4
13 86 4
13 87 2
13 88 5
13 89 2
13 90 2
13 91 4
13 92 2
13 93 1
13 94 5
13 95 4
13 96 2
13 97 4
13 98 3
13 99 5
13 100 2
14 15 2
14 16 1
14 17 3
14 18 3
14 19 1
14 20 4
14 21 1
14 22 1
14 23 3
14 24 4
14 25 3
14 26 3
14 27 2
14 28 5
14 29 3
14 30 2
14 31 3
14 32 1
14 33 5
14 34 5
14 35 4
14 36 5
14 37 3
14 38 5
14 39 5
14 40 4
14 41 2
14 42 2
14 43 2
14 44 5
14 45 5
14 46 3
14 47 2
14 48 3
14 49 3
14 50 1
14 51 5
14 52 4
14 53 2
14 54 3
14 55 2
14 56 3
14 57 4
14 58 4
14 59 5
14 60 1
14 61 4
14 62 4
14 63 3
14 64 5
14 65 2
14 66 5
14 67 2
14 68 3
14 69 2
14 70 4
14 71 3
14 72 5
14 73 3
14 74 3
14 75 2
14 76 3
14 77 1
14 78 4
14 79 2
14 80 4
14 81 3
14 82 4
14 83 4
14 84 1
14 85 5
14 86 1
14 87 4
14 88 1
14 89 5
14 90 5
14 91 4
14 92 3
14 93 2
14 94 5
14 95 5
14 96 5
14 97 2
14 98 1
14 99 3
14 100 4
15 16 5
15 17 3
15 18 1
15 19 5
15 20 3
15 21 2
15 22 3
15 23 5
15 24 5
15 25 5
15 26 5
15 27 4
15 28 5
15 29 2
15 30 1
15 31 2
15 32 1
15 33 3
15 34 3
15 35 2
15 36 4
15 37 1
15 38 3
15 39 2
15 40 2
15 41 3
15 42 5
15 43 1
15 44 5
15 45 3
15 46 4
15 47 5
15 48 3
15 49 2
15 50 3
15 51 5
15 52 2
15 53 4
15 54 2
15 55 2
15 56 4
15 57 5
15 58 1
15 59 4
15 60 3
15 61 5
15 62 1
15 63 1
15 64 2
15 65 1
15 66 2
15 67 1
15 68 3
15 69 5
15 70 1
15 71 2
15 72 3
15 73 4
15 74 5
15 75 4
15 76 1
15 77 2
15 78 1
15 79 3
15 80 3
15 81 1
15 82 2
15 83 5
15 84 4
15 85 3
15 86 4
15 87 1
15 88 1
15 89 5
15 90 5
15 91 5
15 92 1
15 93 2
15 94 3
15 95 1
15 96 1
15 97 1
15 98 4
15 99 4
15 100 3
16 17 3
16 18 1
16 19 4
16 20 2
16 21 4
16 22 4
16 23 1
16 24 5
16 25 4
16 26 5
16 27 3
16 28 4
16 29 5
16 30 4
16 31 2
16 32 4
16 33 3
16 34 5
16 35 3
16 36 1
16 37 2
16 38 2
16 39 5
16 40 3
16 41 2
16 42 4
16 43 1
16 44 2
16 45 4
16 46 2
16 47 3
16 48 3
16 49 4
16 50 2
16 51 1
16 52 1
16 53 4
16 54 5
16 55 2
16 56 2
16 57 3
16 58 4
16 59 2
16 60 5
16 61 4
16 62 2
16 63 4
16 64 4
16 65 4
16 66 3
16 67 2
16 68 5
16 69 5
16 70 4
16 71 5
16 72 1
16 73 2
16 74 4
16 75 5
16 76 3
16 77 4
16 78 5
16 79 5
16 80 1
16 81 5
16 82 3
16 83 2
16 84 3
16 85 2
16 86 1
16 87 5
16 88 2
16 89 3
16 90 3
16 91 3
16 92 5
16 93 3
16 94 5
16 95 4
16 96 4
16 97 3
16 98 3
16 99 2
16 100 5
17 18 5
17 19 5
17 20 1
17 21 1
17 22 2
17 23 4
17 24 3
17 25 3
17 26 2
17 27 4
17 28 4
17 29 5
17 30 2
17 31 3
17 32 4
17 33 1
17 34 5
17 35 4
17 36 1
17 37 4
17 38 4
17 39 3
17 40 3
17 41 3
17 42 2
17 43 4
17 44 1
17 45 5
17 46 5
17 47 2
17 48 3
17 49 4
17 50 5
17 51 1
17 52 5
17 53 3
17 54 1
17 55 5
17 56 2
17 57 3
17 58 5
17 59 3
17 60 4
17 61 1
17 62 1
17 63 2
17 64 5
17 65 1
17 66 1
17 67 2
17 68 2
17 69 4
17 70 4
17 71 4
17 72 1
17 73 2
17 74 4
17 75 5
17 76 3
17 77 4
17 78 1
17 79 2
17 80 1
17 81 3
17 82 3
17 83 4
17 84 2
17 85 5
17 86 2
17 87 1
17 88 3
17 89 3
17 90 2
17 91 1
17 92 2
17 93 1
17 94 2
17 95 2
17 96 3
17 97 4
17 98 2
17 99 2
17 100 4
18 19 4
18 20 2
18 21 1
18 22 3
18 23 1
18 24 3
18 25 4
18 26 1
18 27 3
18 28 4
18 29 1
18 30 3
18 31 3
18 32 3
18 33 5
18 34 4
18 35 2
18 36 1
18 37 1
18 38 3
18 39 4
18 40 3
18 41 5
18 42 3
18 43 4
18 44 2
18 45 3
18 46 3
18 47 3
18 48 4
18 49 1
18 50 1
18 51 5
18 52 3
18 53 1
18 54 5
18 55 3
18 56 2
18 57 2
18 58 1
18 59 1
18 60 5
18 61 3
18 62 4
18 63 4
18 64 4
18 65 2
18 66 2
18 67 4
18 68 2
18 69 3
18 70 1
18 71 2
18 72 3
18 73 2
18 74 4
18 75 5
18 76 1
18 77 5
18 78 1
18 79 4
18 80 3
18 81 4
18 82 3
18 83 2
18 84 4
18 85 3
18 86 4
18 87 2
18 88 4
18 89 4
18 90 3
18 91 1
18 92 5
18 93 3
18 94 1
18 95 5
18 96 5
18 97 5
18 98 2
18 99 2
18 100 5
19 20 4
19 21 3
19 22 1
19 23 1
19 24 5
19 25 5
19 26 3
19 27 2
19 28 4
19 29 1
19 30 2
19 31 2
19 32 1
19 33 4
19 34 2
19 35 2
19 36 3
19 37 4
19 38 3
19 39 5
19 40 3
19 41 4
19 42 4
19 43 1
19 44 4
19 45 2
19 46 3
19 47 5
19 48 3
19 49 1
19 50 5
19 51 3
19 52 2
19 53 4
19 54 4
19 55 4
19 56 1
19 57 2
19 58 3
19 59 1
19 60 2
19 61 1
19 62 5
19 63 1
19 64 5
19 65 5
19 66 2
19 67 5
19 68 2
19 69 4
19 70 4
19 71 2
19 72 2
19 73 5
19 74 4
19 75 1
19 76 2
19 77 2
19 78 4
19 79 1
19 80 4
19 81 4
19 82 5
19 83 2
19 84 4
19 85 1
19 86 2
19 87 4
19 88 4
19 89 3
19 90 3
19 91 3
19 92 3
19 93 1
19 94 2
19 95 1
19 96 3
19 97 5
19 98 1
19 99 3
19 100 5
20 21 5
20 22 4
20 23 5
20 24 4
20 25 1
20 26 1
20 27 1
20 28 2
20 29 3
20 30 1
20 31 2
20 32 2
20 33 1
20 34 4
20 35 5
20 36 4
20 37 5
20 38 4
20 39 4
20 40 3
20 41 5
20 42 4
20 43 5
20 44 5
20 45 5
20 46 4
20 47 2
20 48 4
20 49 1
20 50 4
20 51 3
20 52 4
20 53 2
20 54 1
20 55 3
20 56 2
20 57 3
20 58 2
20 59 1
20 60 5
20 61 1
20 62 2
20 63 5
20 64 2
20 65 5
20 66 3
20 67 3
20 68 4
20 69 1
20 70 3
20 71 1
20 72 4
20 73 5
20 74 5
20 75 3
20 76 4
20 77 4
20 78 2
20 79 2
20 80 3
20 81 3
20 82 3
20 83 3
20 84 1
20 85 2
20 86 5
20 87 1
20 88 2
20 89 3
20 90 4
20 91 1
20 92 2
20 93 2
20 94 3
20 95 5
20 96 4
20 97 3
20 98 5
20 99 2
20 100 4
21 22 3
21 23 1
21 24 1
21 25 2
21 26 1
21 27 1
21 28 3
21 29 5
21 30 5
21 31 5
21 32 3
21 33 4
21 34 5
21 35 2
21 36 4
21 37 4
21 38 4
21 39 3
21 40 5
21 41 5
21 42 2
21 43 4
21 44 4
21 45 4
21 46 5
21 47 3
21 48 1
21 49 2
21 50 1
21 51 3
21 52 1
21 53 5
21 54 3
21 55 4
21 56 3
21 57 1
21 58 1
21 59 2
21 60 4
21 61 4
21 62 1
21 63 4
21 64 5
21 65 2
21 66 4
21 67 5
21 68 3
21 69 4
21 70 3
21 71 3
21 72 2
21 73 3
21 74 4
21 75 4
21 76 2
21 77 3
21 78 1
21 79 2
21 80 2
21 81 4
21 82 3
21 83 5
21 84 5
21 85 5
21 86 2
21 87 4
21 88 1
21 89 2
21 90 5
21 91 4
21 92 2
21 93 2
21 94 5
21 95 5
21 96 1
21 97 1
21 98 5
21 99 3
21 100 5
22 23 3
22 24 3
22 25 4
22 26 3
22 27 2
22 28 3
22 29 4
22 30 1
22 31 5
22 32 2
22 33 3
22 34 1
22 35 4
22 36 5
22 37 1
22 38 5
22 39 1
22 40 2
22 41 2
22 42 1
22 43 4
22 44 3
22 45 1
22 46 3
22 47 1
22 48 3
22 49 1
22 50 2
22 51 4
22 52 1
22 53 2
22 54 5
22 55 3
22 56 4
22 57 5
22 58 2
22 59 2
22 60 1
22 61 2
22 62 5
22 63 5
22 64 1
22 65 2
22 66 4
22 67 5
22 68 3
22 69 5
22 70 3
22 71 3
22 72 4
22 73 1
22 74 2
22 75 4
22 76 5
22 77 1
22 78 4
22 79 1
22 80 4
22 81 3
22 82 1
22 83 2
22 84 5
22 85 2
22 86 4
22 87 3
22 88 3
22 89 5
22 90 1
22 91 1
22 92 2
22 93 4
22 94 4
22 95 5
22 96 1
22 97 4
22 98 5
22 99 5
22 100 1
23 24 2
23 25 2
23 26 5
23 27 5
23 28 1
23 29 4
23 30 4
23 31 1
23 32 4
23 33 3
23 34 4
23 35 3
23 36 4
23 37 1
23 38 5
23 39 4
23 40 5
23 41 1
23 42 5
23 43 4
23 44 3
23 45 4
23 46 2
23 47 1
23 48 4
23 49 2
23 50 5
23 51 2
23 52 4
23 53 5
23 54 1
23 55 2
23 56 1
23 57 2
23 58 2
23 59 4
23 60 1
23 61 3
23 62 2
23 63 5
23 64 5
23 65 4
23 66 1
23 67 3
23 68 5
23 69 4
23 70 1
23 71 2
23 72 2
23 73 4
23 74 1
23 75 5
23 76 5
23 77 1
23 78 5
23 79 4
23 80 2
23 81 3
23 82 1
23 83 3
23 84 5
23 85 4
23 86 1
23 87 4
23 88 5
23 89 3
23 90 4
23 91 3
23 92 5
23 93 1
23 94 1
23 95 5
23 96 4
23 97 5
23 98 5
23 99 4
23 100 4
24 25 4
24 26 4
24 27 4
24 28 3
24 29 1
24 30 3
24 31 4
24 32 5
24 33 4
24 34 1
24 35 4
24 36 3
24 37 4
24 38 2
24 39 5
24 40 4
24 41 5
24 42 2
24 43 3
24 44 3
24 45 4
24 46 2
24 47 1
24 48 2
24 49 2
24 50 4
24 51 1
24 52 5
24 53 3
24 54 4
24 55 2
24 56 1
24 57 2
24 58 4
24 59 3
24 60 2
24 61 3
24 62 5
24 63 1
24 64 5
24 65 4
24 66 2
24 67 5
24 68 2
24 69 4
24 70 4
24 71 2
24 72 4
24 73 5
24 74 2
24 75 2
24 76 1
24 77 4
24 78 3
24 79 5
24 80 3
24 81 3
24 82 3
24 83 1
24 84 4
24 85 4
24 86 2
24 87 3
24 88 1
24 89 5
24 90 1
24 91 2
24 92 2
24 93 4
24 94 2
24 95 5
24 96 1
24 97 5
24 98 4
24 99 2
24 100 3
25 26 3
25 27 5
25 28 3
25 29 2
25 30 4
25 31 5
25 32 5
25 33 1
25 34 3
25 35 3
25 36 4
25 37 5
25 38 4
25 39 5
25 40 4
25 41 4
25 42 5
25 43 4
25 44 1
25 45 4
25 46 5
25 47 1
25 48 5
25 49 4
25 50 4
25 51 2
25 52 3
25 53 3
25 54 5
25 55 2
25 56 2
25 57 3
25 58 2
25 59 4
25 60 3
25 61 5
25 62 1
25 63 1
25 64 5
25 65 5
25 66 4
25 67 2
25 68 2
25 69 5
25 70 5
25 71 2
25 72 4
25 73 4
25 74 2
25 75 5
25 76 2
25 77 1
25 78 3
25 79 1
25 80 5
25 81 1
25 82 5
25 83 4
25 84 3
25 85 4
25 86 4
25 87 3
25 88 4
25 89 4
25 90 2
25 91 4
25 92 3
25 93 3
25 94 5
25 95 4
25 96 4
25 97 2
25 98 5
25 99 4
25 100 4
26 27 5
26 28 5
26 29 4
26 30 1
26 31 3
26 32 2
26 33 5
26 34 2
26 35 4
26 36 2
26 37 1
26 38 3
26 39 4
26 40 1
26 41 5
26 42 2
26 43 1
26 44 4
26 45 1
26 46 1
26 47 1
26 48 2
26 49 2
26 50 1
26 51 2
26 52 1
26 53 5
26 54 5
26 55 2
26 56 5
26 57 4
26 58 5
26 59 4
26 60 3
26 61 1
26 62 4
26 63 1
26 64 4
26 65 3
26 66 4
26 67 2
26 68 3
26 69 5
26 70 3
26 71 2
26 72 2
26 73 4
26 74 3
26 75 4
26 76 5
26 77 2
26 78 2
26 79 2
26 80 5
26 81 1
26 82 1
26 83 2
26 84 4
26 85 1
26 86 3
26 87 4
26 88 4
26 89 3
26 90 3
26 91 1
26 92 4
26 93 4
26 94 1
26 95 5
26 96 1
26 97 3
26 98 5
26 99 5
26 100 5
27 28 4
27 29 2
27 30 1
27 31 4
27 32 4
27 33 5
27 34 4
27 35 3
27 36 1
27 37 2
27 38 3
27 39 1
27 40 2
27 41 4
27 42 4
27 43 1
27 44 2
27 45 5
27 46 1
27 47 4
27 48 5
27 49 1
27 50 5
27 51 3
27 52 1
27 53 2
27 54 3
27 55 4
27 56 3
27 57 3
27 58 3
27 59 2
27 60 1
27 61 1
27 62 4
27 63 5
27 64 1
27 65 1
27 66 5
27 67 3
27 68 2
27 69 1
27 70 2
27 71 1
27 72 2
27 73 3
27 74 2
27 75 5
27 76 3
27 77 2
27 78 2
27 79 1
27 80 1
27 81 5
27 82 1
27 83 3
27 84 5
27 85 5
27 86 2
27 87 5
27 88 3
27 89 4
27 90 3
27 91 3
27 92 5
27 93 1
27 94 1
27 95 5
27 96 1
27 97 4
27 98 1
27 99 1
27 100 4
28 29 3
28 30 4
28 31 2
28 32 4
28 33 4
28 34 5
28 35 1
28 36 4
28 37 4
28 38 2
28 39 3
28 40 4
28 41 4
28 42 4
28 43 4
28 44 1
28 45 2
28 46 2
28 47 5
28 48 1
28 49 3
28 50 4
28 51 5
28 52 4
28 53 3
28 54 3
28 55 1
28 56 5
28 57 4
28 58 4
28 59 1
28 60 3
28 61 1
28 62 4
28 63 1
28 64 4
28 65 1
28 66 5
28 67 3
28 68 3
28 69 1
28 70 3
28 71 1
28 72 5
28 73 4
28 74 5
28 75 5
28 76 2
28 77 4
28 78 5
28 79 2
28 80 3
28 81 1
28 82 4
28 83 1
28 84 5
28 85 1
28 86 3
28 87 4
28 88 1
28 89 1
28 90 3
28 91 1
28 92 2
28 93 4
28 94 2
28 95 5
28 96 1
28 97 2
28 98 5
28 99 2
28 100 2
29 30 2
29 31 3
29 32 5
29 33 4
29 34 3
29 35 1
29 36 3
29 37 2
29 38 1
29 39 1
29 40 2
29 41 3
29 42 4
29 43 2
29 44 3
29 45 2
29 46 1
29 47 4
29 48 3
29 49 4
29 50 3
29 51 5
29 52 1
29 53 2
29 54 5
29 55 3
29 56 2
29 57 5
29 58 5
29 59 1
29 60 1
29 61 2
29 62 2
29 63 2
29 64 3
29 65 5
29 66 3
29 67 5
29 68 3
29 69 3
29 70 2
29 71 2
29 72 1
29 73 1
29 74 2
29 75 2
29 76 3
29 77 1
29 78 3
29 79 2
29 80 3
29 81 5
29 82 2
29 83 1
29 84 5
29 85 2
29 86 1
29 87 2
29 88 4
29 89 1
29 90 1
29 91 1
29 92 2
29 93 2
29 94 5
29 95 5
29 96 5
29 97 4
29 98 4
29 99 2
29 100 5
30 31 5
30 32 5
30 33 4
30 34 4
30 35 4
30 36 3
30 37 4
30 38 2
30 39 1
30 40 5
30 41 3
30 42 2
30 43 3
30 44 3
30 45 4
30 46 5
30 47 3
30 48 3
30 49 4
30 50 5
30 51 5
30 52 5
30 53 2
30 54 5
30 55 3
30 56 4
30 57 1
30 58 4
30 59 1
30 60 5
30 61 5
30 62 2
30 63 5
30 64 3
30 65 3
30 66 3
30 67 4
30 68 1
30 69 4
30 70 4
30 71 3
30 72 5
30 73 1
30 74 5
30 75 4
30 76 5
30 77 3
30 78 3
30 79 3
30 80 2
30 81 2
30 82 1
30 83 2
30 84 5
30 85 1
30 86 4
30 87 1
30 88 5
30 89 3
30 90 5
30 91 2
30 92 3
30 93 5
30 94 2
30 95 1
30 96 4
30 97 1
30 98 3
30 99 5
30 100 1
31 32 2
31 33 4
31 34 4
31 35 5
31 36 3
31 37 5
31 38 3
31 39 3
31 40 4
31 41 1
31 42 1
31 43 2
31 44 3
31 45 5
31 46 1
31 47 4
31 48 2
31 49 5
31 50 5
31 51 2
31 52 2
31 53 5
31 54 3
31 55 1
31 56 4
31 57 2
31 58 1
31 59 3
31 60 5
31 61 1
31 62 1
31 63 3
31 64 2
31 65 3
31 66 1
31 67 3
31 68 2
31 69 4
31 70 4
31 71 4
31 72 1
31 73 5
31 74 3
31 75 2
31 76 5
31 77 5
31 78 2
31 79 4
31 80 4
31 81 3
31 82 3
31 83 2
31 84 4
31 85 5
31 86 3
31 87 5
31 88 3
31 89 4
31 90 2
31 91 4
31 92 5
31 93 3
31 94 3
31 95 5
31 96 4
31 97 4
31 98 4
31 99 4
31 100 1
32 33 3
32 34 2
32 35 2
32 36 3
32 37 2
32 38 4
32 39 5
32 40 4
32 41 5
32 42 2
32 43 3
32 44 4
32 45 2
32 46 5
32 47 4
32 48 2
32 49 2
32 50 5
32 51 3
32 52 5
32 53 5
32 54 5
32 55 4
32 56 3
32 57 3
32 58 4
32 59 2
32 60 5
32 61 1
32 62 3
32 63 4
32 64 5
32 65 1
32 66 4
32 67 2
32 68 5
32 69 2
32 70 1
32 71 2
32 72 1
32 73 1
32 74 4
32 75 4
32 76 2
32 77 5
32 78 3
32 79 1
32 80 4
32 81 1
32 82 5
32 83 2
32 84 3
32 85 3
32 86 5
32 87 3
32 88 5
32 89 1
32 90 4
32 91 2
32 92 1
32 93 2
32 94 4
32 95 4
32 96 3
32 97 2
32 98 2
32 99 4
32 100 3
33 34 1
33 35 2
33 36 1
33 37 1
33 38 5
33 39 5
33 40 1
33 41 2
33 42 2
33 43 1
33 44 3
33 45 2
33 46 3
33 47 2
33 48 1
33 49 3
33 50 4
33 51 3
33 52 2
33 53 3
33 54 4
33 55 1
33 56 3
33 57 2
33 58 1
33 59 3
33 60 4
33 61 4
33 62 3
33 63 4
33 64 3
33 65 2
33 66 3
33 67 5
33 68 5
33 69 1
33 70 1
33 71 1
33 72 3
33 73 3
33 74 1
33 75 2
33 76 1
33 77 4
33 78 3
33 79 4
33 80 2
33 81 5
33 82 3
33 83 5
33 84 3
33 85 4
33 86 2
33 87 1
33 88 3
33 89 5
33 90 3
33 91 2
33 92 3
33 93 1
33 94 4
33 95 4
33 96 1
33 97 1
33 98 3
33 99 3
33 100 2
34 35 3
34 36 3
34 37 5
34 38 4
34 39 2
34 40 3
34 41 5
34 42 4
34 43 2
34 44 2
34 45 1
34 46 5
34 47 3
34 48 4
34 49 5
34 50 4
34 51 3
34 52 3
34 53 4
34 54 1
34 55 5
34 56 3
34 57 3
34 58 5
34 59 2
34 60 1
34 61 2
34 62 2
34 63 2
34 64 3
34 65 5
34 66 2
34 67 1
34 68 2
34 69 5
34 70 4
34 71 4
34 72 3
34 73 4
34 74 5
34 75 3
34 76 3
34 77 4
34 78 4
34 79 4
34 80 4
34 81 5
34 82 3
34 83 2
34 84 1
34 85 5
34 86 2
34 87 5
34 88 5
34 89 5
34 90 3
34 91 4
34 92 1
34 93 2
34 94 3
34 95 1
34 96 1
34 97 3
34 98 5
34 99 5
34 100 2
35 36 2
35 37 5
35 38 4
35 39 2
35 40 2
35 41 3
35 42 5
35 43 1
35 44 5
35 45 1
35 46 5
35 47 2
35 48 5
35 49 2
35 50 4
35 51 2
35 52 2
35 53 5
35 54 4
35 55 2
35 56 1
35 57 2
35 58 2
35 59 5
35 60 2
35 61 5
35 62 1
35 63 3
35 64 4
35 65 2
35 66 5
35 67 4
35 68 2
35 69 1
35 70 3
35 71 3
35 72 5
35 73 4
35 74 5
35 75 1
35 76 1
35 77 3
35 78 5
35 79 5
35 80 1
35 81 1
35 82 1
35 83 2
35 84 4
35 85 2
35 86 1
35 87 3
35 88 2
35 89 4
35 90 3
35 91 2
35 92 5
35 93 1
35 94 2
35 95 5
35 96 1
35 97 5
35 98 5
35 99 5
35 100 2
36 37 2
36 38 1
36 39 5
36 40 1
36 41 3
36 42 1
36 43 5
36 44 2
36 45 2
36 46 5
36 47 5
36 48 1
36 49 4
36 50 5
36 51 2
36 52 4
36 53 2
36 54 5
36 55 5
36 56 3
36 57 1
36 58 2
36 59 5
36 60 4
36 61 2
36 62 4
36 63 2
36 64 1
36 65 1
36 66 2
36 67 5
36 68 2
36 69 5
36 70 5
36 71 3
36 72 4
36 73 1
36 74 4
36 75 3
36 76 4
36 77 5
36 78 1
36 79 1
36 80 1
36 81 2
36 82 1
36 83 3
36 84 3
36 85 4
36 86 3
36 87 3
36 88 1
36 89 1
36 90 2
36 91 4
36 92 2
36 93 2
36 94 3
36 95 2
36 96 3
36 97 3
36 98 1
36 99 5
36 100 4
37 38 4
37 39 2
37 40 1
37 41 2
37 42 3
37 43 1
37 44 1
37 45 2
37 46 2
37 47 5
37 48 3
37 49 2
37 50 2
37 51 4
37 52 3
37 53 3
37 54 2
37 55 1
37 56 5
37 57 5
37 58 2
37 59 5
37 60 3
37 61 5
37 62 3
37 63 5
37 64 4
37 65 2
37 66 5
37 67 4
37 68 1
37 69 5
37 70 1
37 71 4
37 72 3
37 73 1
37 74 2
37 75 2
37 76 1
37 77 4
37 78 5
37 79 3
37 80 1
37 81 5
37 82 4
37 83 2
37 84 1
37 85 3
37 86 1
37 87 1
37 88 2
37 89 5
37 90 3
37 91 4
37 92 5
37 93 5
37 94 3
37 95 4
37 96 3
37 97 5
37 98 5
37 99 1
37 100 3
38 39 4
38 40 3
38 41 2
38 42 4
38 43 3
38 44 2
38 45 5
38 46 3
38 47 2
38 48 3
38 49 2
38 50 1
38 51 2
38 52 2
38 53 1
38 54 4
38 55 2
38 56 2
38 57 1
38 58 4
38 59 2
38 60 4
38 61 1
38 62 3
38 63 4
38 64 4
38 65 2
38 66 3
38 67 3
38 68 4
38 69 1
38 70 2
38 71 5
38 72 3
38 73 5
38 74 5
38 75 4
38 76 2
38 77 5
38 78 2
38 79 4
38 80 3
38 81 3
38 82 4
38 83 3
38 84 3
38 85 2
38 86 3
38 87 4
38 88 4
38 89 4
38 90 4
38 91 1
38 92 2
38 93 3
38 94 2
38 95 4
38 96 5
38 97 1
38 98 5
38 99 2
38 100 5
39 40 3
39 41 4
39 42 4
39 43 2
39 44 2
39 45 2
39 46 5
39 47 1
39 48 3
39 49 5
39 50 4
39 51 4
39 52 5
39 53 4
39 54 3
39 55 2
39 56 5
39 57 1
39 58 4
39 59 2
39 60 4
39 61 4
39 62 5
39 63 5
39 64 3
39 65 5
39 66 2
39 67 3
39 68 5
39 69 1
39 70 1
39 71 4
39 72 1
39 73 3
39 74 1
39 75 3
39 76 2
39 77 4
39 78 2
39 79 5
39 80 1
39 81 1
39 82 2
39 83 5
39 84 4
39 85 1
39 86 4
39 87 3
39 88 1
39 89 2
39 90 5
39 91 3
39 92 1
39 93 3
39 94 4
39 95 5
39 96 2
39 97 3
39 98 1
39 99 1
39 100 3
40 41 2
40 42 3
40 43 5
40 44 1
40 45 1
40 46 1
40 47 2
40 48 5
40 49 5
40 50 4
40 51 4
40 52 2
40 53 1
40 54 5
40 55 3
40 56 5
40 57 4
40 58 3
40 59 1
40 60 2
40 61 2
40 62 2
40 63 2
40 64 4
40 65 2
40 66 2
40 67 5
40 68 1
40 69 4
40 70 3
40 71 2
40 72 5
40 73 4
40 74 2
40 75 3
40 76 3
40 77 3
40 78 5
40 79 1
40 80 3
40 81 3
40 82 4
40 83 1
40 84 1
40 85 1
40 86 1
40 87 4
40 88 3
40 89 2
40 90 3
40 91 5
40 92 4
40 93 1
40 94 4
40 95 4
40 96 2
40 97 2
40 98 2
40 99 4
40 100 1
41 42 5
41 43 3
41 44 1
41 45 3
41 46 3
41 47 4
41 48 2
41 49 2
41 50 2
41 51 2
41 52 2
41 53 3
41 54 4
41 55 4
41 56 5
41 57 4
41 58 2
41 59 3
41 60 2
41 61 5
41 62 4
41 63 4
41 64 1
41 65 1
41 66 3
41 67 2
41 68 2
41 69 4
41 70 1
41 71 3
41 72 1
41 73 1
41 74 2
41 75 5
41 76 5
41 77 4
41 78 5
41 79 2
41 80 3
41 81 3
41 82 3
41 83 5
41 84 1
41 85 4
41 86 2
41 87 4
41 88 3
41 89 1
41 90 1
41 91 5
41 92 3
41 93 1
41 94 2
41 95 4
41 96 4
41 97 2
41 98 5
41 99 4
41 100 2
42 43 3
42 44 4
42 45 5
42 46 5
42 47 1
42 48 5
42 49 4
42 50 2
42 51 3
42 52 2
42 53 5
42 54 5
42 55 2
42 56 1
42 57 4
42 58 4
42 59 2
42 60 1
42 61 1
42 62 1
42 63 4
42 64 1
42 65 4
42 66 1
42 67 1
42 68 2
42 69 1
42 70 1
42 71 4
42 72 3
42 73 5
42 74 2
42 75 3
42 76 4
42 77 2
42 78 2
42 79 3
42 80 3
42 81 4
42 82 4
42 83 5
42 84 4
42 85 2
42 86 3
42 87 2
42 88 4
42 89 4
42 90 4
42 91 3
42 92 1
42 93 3
42 94 5
42 95 2
42 96 1
42 97 2
42 98 2
42 99 4
42 100 5
43 44 3
43 45 1
43 46 3
43 47 1
43 48 5
43 49 1
43 50 1
43 51 3
43 52 2
43 53 3
43 54 1
43 55 2
43 56 4
43 57 1
43 58 2
43 59 1
43 60 4
43 61 1
43 62 1
43 63 5
43 64 3
43 65 2
43 66 1
43 67 1
43 68 1
43 69 5
43 70 5
43 71 1
43 72 1
43 73 3
43 74 4
43 75 1
43 76 5
43 77 5
43 78 1
43 79 4
43 80 2
43 81 5
43 82 5
43 83 3
43 84 3
43 85 3
43 86 4
43 87 5
43 88 3
43 89 3
43 90 4
43 91 4
43 92 1
43 93 4
43 94 2
43 95 4
43 96 3
43 97 2
43 98 3
43 99 1
43 100 3
44 45 3
44 46 4
44 47 4
44 48 2
44 49 1
44 50 5
44 51 2
44 52 5
44 53 4
44 54 3
44 55 5
44 56 2
44 57 2
44 58 4
44 59 3
44 60 3
44 61 3
44 62 4
44 63 5
44 64 3
44 65 2
44 66 1
44 67 4
44 68 3
44 69 5
44 70 1
44 71 4
44 72 2
44 73 4
44 74 3
44 75 1
44 76 3
44 77 2
44 78 5
44 79 4
44 80 2
44 81 3
44 82 3
44 83 2
44 84 3
44 85 4
44 86 1
44 87 1
44 88 3
44 89 4
44 90 5
44 91 1
44 92 1
44 93 4
44 94 3
44 95 4
44 96 2
44 97 2
44 98 3
44 99 1
44 100 5
45 46 1
45 47 3
45 48 4
45 49 3
45 50 2
45 51 5
45 52 1
45 53 2
45 54 3
45 55 2
45 56 2
45 57 2
45 58 5
45 59 2
45 60 4
45 61 3
45 62 2
45 63 2
45 64 2
45 65 4
45 66 3
45 67 2
45 68 3
45 69 1
45 70 3
45 71 5
45 72 1
45 73 3
45 74 3
45 75 2
45 76 2
45 77 2
45 78 2
45 79 5
45 80 2
45 81 3
45 82 5
45 83 4
45 84 1
45 85 5
45 86 1
45 87 4
45 88 3
45 89 4
45 90 2
45 91 5
45 92 5
45 93 2
45 94 4
45 95 5
45 96 2
45 97 1
45 98 3
45 99 1
45 100 1
46 47 3
46 48 1
46 49 4
46 50 1
46 51 1
46 52 2
46 53 5
46 54 5
46 55 5
46 56 3
46 57 3
46 58 5
46 59 4
46 60 1
46 61 4
46 62 3
46 63 5
46 64 3
46 65 1
46 66 5
46 67 1
46 68 4
46 69 3
46 70 5
46 71 4
46 72 4
46 73 4
46 74 2
46 75 3
46 76 2
46 77 5
46 78 4
46 79 1
46 80 4
46 81 5
46 82 5
46 83 5
46 84 4
46 85 3
46 86 2
46 87 2
46 88 2
46 89 2
46 90 4
46 91 3
46 92 1
46 93 1
46 94 1
46 95 5
46 96 3
46 97 1
46 98 3
46 99 3
46 100 1
47 48 4
47 49 2
47 50 4
47 51 3
47 52 1
47 53 2
47 54 2
47 55 2
47 56 4
47 57 4
47 58 3
47 59 2
47 60 1
47 61 4
47 62 4
47 63 3
47 64 1
47 65 5
47 66 1
47 67 2
47 68 3
47 69 5
47 70 4
47 71 5
47 72 1
47 73 1
47 74 4
47 75 4
47 76 1
47 77 2
47 78 3
47 79 3
47 80 1
47 81 4
47 82 3
47 83 3
47 84 5
47 85 1
47 86 5
47 87 5
47 88 3
47 89 5
47 90 2
47 91 1
47 92 5
47 93 3
47 94 2
47 95 1
47 96 5
47 97 3
47 98 5
47 99 1
47 100 5
48 49 3
48 50 2
48 51 4
48 52 3
48 53 3
48 54 4
48 55 3
48 56 2
48 57 1
48 58 5
48 59 5
48 60 4
48 61 3
48 62 2
48 63 4
48 64 4
48 65 2
48 66 2
48 67 2
48 68 4
48 69 3
48 70 1
48 71 1
48 72 2
48 73 1
48 74 2
48 75 1
48 76 2
48 77 5
48 78 4
48 79 2
48 80 1
48 81 2
48 82 3
48 83 2
48 84 3
48 85 5
48 86 5
48 87 5
48 88 3
48 89 2
48 90 5
48 91 3
48 92 1
48 93 4
48 94 3
48 95 4
48 96 2
48 97 5
48 98 3
48 99 2
48 100 3
49 50 1
49 51 3
49 52 2
49 53 5
49 54 5
49 55 3
49 56 2
49 57 5
49 58 3
49 59 1
49 60 4
49 61 4
49 62 5
49 63 2
49 64 3
49 65 5
49 66 5
49 67 5
49 68 4
49 69 3
49 70 1
49 71 1
49 72 3
49 73 5
49 74 1
49 75 3
49 76 2
49 77 5
49 78 3
49 79 3
49 80 4
49 81 3
49 82 1
49 83 3
49 84 4
49 85 1
49 86 2
49 87 1
49 88 5
49 89 2
49 90 1
49 91 4
49 92 3
49 93 4
49 94 1
49 95 4
49 96 2
49 97 4
49 98 2
49 99 2
49 100 5
50 51 2
50 52 3
50 53 3
50 54 1
50 55 4
50 56 3
50 57 1
50 58 4
50 59 5
50 60 5
50 61 4
50 62 1
50 63 1
50 64 4
50 65 1
50 66 5
50 67 1
50 68 3
50 69 2
50 70 4
50 71 2
50 72 4
50 73 2
50 74 1
50 75 1
50 76 2
50 77 1
50 78 3
50 79 4
50 80 2
50 81 1
50 82 4
50 83 4
50 84 2
50 85 1
50 86 4
50 87 2
50 88 3
50 89 1
50 90 5
50 91 4
50 92 5
50 93 5
50 94 5
50 95 2
50 96 3
50 97 5
50 98 1
50 99 1
50 100 3
51 52 1
51 53 2
51 54 4
51 55 5
51 56 3
51 57 4
51 58 4
51 59 2
51 60 4
51 61 3
51 62 4
51 63 2
51 64 1
51 65 5
51 66 1
51 67 4
51 68 4
51 69 3
51 70 2
51 71 2
51 72 4
51 73 2
51 74 5
51 75 5
51 76 5
51 77 3
51 78 1
51 79 3
51 80 1
51 81 1
51 82 1
51 83 5
51 84 1
51 85 3
51 86 2
51 87 5
51 88 1
51 89 2
51 90 5
51 91 3
51 92 5
51 93 4
51 94 1
51 95 2
51 96 2
51 97 4
51 98 1
51 99 3
51 100 4
52 53 4
52 54 4
52 55 2
52 56 1
52 57 1
52 58 5
52 59 3
52 60 5
52 61 2
52 62 5
52 63 1
52 64 5
52 65 3
52 66 1
52 67 4
52 68 3
52 69 3
52 70 4
52 71 4
52 72 3
52 73 4
52 74 4
52 75 5
52 76 1
52 77 5
52 78 3
52 79 1
52 80 1
52 81 2
52 82 5
52 83 3
52 84 1
52 85 4
52 86 4
52 87 1
52 88 1
52 89 4
52 90 5
52 91 1
52 92 2
52 93 4
52 94 5
52 95 1
52 96 1
52 97 5
52 98 1
52 99 4
52 100 2
53 54 4
53 55 2
53 56 5
53 57 2
53 58 2
53 59 1
53 60 3
53 61 3
53 62 3
53 63 2
53 64 4
53 65 2
53 66 2
53 67 3
53 68 1
53 69 4
53 70 1
53 71 2
53 72 4
53 73 3
53 74 4
53 75 1
53 76 1
53 77 2
53 78 1
53 79 1
53 80 1
53 81 2
53 82 3
53 83 1
53 84 4
53 85 5
53 86 2
53 87 4
53 88 4
53 89 4
53 90 4
53 91 4
53 92 5
53 93 1
53 94 4
53 95 2
53 96 1
53 97 2
53 98 1
53 99 3
53 100 2
54 55 1
54 56 2
54 57 5
54 58 5
54 59 3
54 60 1
54 61 4
54 62 3
54 63 2
54 64 2
54 65 4
54 66 3
54 67 1
54 68 5
54 69 3
54 70 1
54 71 5
54 72 3
54 73 3
54 74 5
54 75 3
54 76 1
54 77 2
54 78 2
54 79 1
54 80 3
54 81 4
54 82 4
54 83 3
54 84 3
54 85 4
54 86 1
54 87 1
54 88 1
54 89 5
54 90 5
54 91 4
54 92 5
54 93 1
54 94 4
54 95 3
54 96 4
54 97 3
54 98 3
54 99 1
54 100 5
55 56 4
55 57 1
55 58 1
55 59 4
55 60 2
55 61 1
55 62 5
55 63 2
55 64 5
55 65 3
55 66 3
55 67 5
55 68 4
55 69 2
55 70 4
55 71 3
55 72 1
55 73 3
55 74 5
55 75 2
55 76 4
55 77 5
55 78 5
55 79 1
55 80 5
55 81 1
55 82 4
55 83 2
55 84 3
55 85 2
55 86 2
55 87 5
55 88 3
55 89 2
55 90 2
55 91 1
55 92 4
55 93 5
55 94 4
55 95 1
55 96 4
55 97 4
55 98 4
55 99 2
55 100 2
56 57 5
56 58 3
56 59 2
56 60 4
56 61 4
56 62 2
56 63 3
56 64 5
56 65 5
56 66 1
56 67 3
56 68 3
56 69 4
56 70 2
56 71 5
56 72 2
56 73 5
56 74 1
56 75 4
56 76 3
56 77 4
56 78 3
56 79 3
56 80 5
56 81 3
56 82 1
56 83 4
56 84 4
56 85 3
56 86 3
56 87 2
56 88 4
56 89 2
56 90 5
56 91 4
56 92 2
56 93 4
56 94 1
56 95 4
56 96 1
56 97 2
56 98 3
56 99 5
56 100 2
57 58 5
57 59 2
57 60 4
57 61 4
57 62 4
57 63 3
57 64 2
57 65 2
57 66 1
57 67 1
57 68 3
57 69 5
57 70 1
57 71 2
57 72 4
57 73 4
57 74 1
57 75 2
57 76 2
57 77 4
57 78 2
57 79 5
57 80 2
57 81 1
57 82 1
57 83 1
57 84 3
57 85 4
57 86 5
57 87 2
57 88 2
57 89 4
57 90 5
57 91 4
57 92 3
57 93 5
57 94 2
57 95 3
57 96 5
57 97 3
57 98 4
57 99 2
57 100 4
58 59 4
58 60 3
58 61 5
58 62 1
58 63 3
58 64 4
58 65 3
58 66 1
58 67 4
58 68 4
58 69 4
58 70 1
58 71 5
58 72 1
58 73 3
58 74 5
58 75 5
58 76 1
58 77 4
58 78 5
58 79 3
58 80 2
58 81 4
58 82 3
58 83 4
58 84 5
58 85 4
58 86 1
58 87 1
58 88 2
58 89 3
58 90 1
58 91 2
58 92 5
58 93 1
58 94 1
58 95 5
58 96 5
58 97 3
58 98 3
58 99 5
58 100 4
59 60 1
59 61 3
59 62 3
59 63 3
59 64 2
59 65 2
59 66 1
59 67 2
59 68 3
59 69 4
59 70 4
59 71 4
59 72 4
59 73 5
59 74 2
59 75 1
59 76 4
59 77 1
59 78 5
59 79 2
59 80 2
59 81 2
59 82 2
59 83 5
59 84 3
59 85 5
59 86 4
59 87 2
59 88 4
59 89 1
59 90 3
59 91 3
59 92 3
59 93 2
59 94 3
59 95 3
59 96 5
59 97 5
59 98 5
59 99 5
59 100 3
60 61 5
60 62 5
60 63 1
60 64 3
60 65 2
60 66 4
60 67 5
60 68 2
60 69 5
60 70 5
60 71 4
60 72 1
60 73 1
60 74 5
60 75 2
60 76 1
60 77 3
60 78 1
60 79 1
60 80 5
60 81 5
60 82 5
60 83 4
60 84 1
60 85 3
60 86 3
60 87 5
60 88 4
60 89 3
60 90 3
60 91 2
60 92 4
60 93 4
60 94 2
60 95 5
60 96 2
60 97 1
60 98 2
60 99 1
60 100 3
61 62 2
61 63 2
61 64 2
61 65 4
61 66 2
61 67 2
61 68 2
61 69 1
61 70 3
61 71 2
61 72 5
61 73 5
61 74 4
61 75 3
61 76 4
61 77 5
61 78 4
61 79 3
61 80 1
61 81 4
61 82 4
61 83 2
61 84 3
61 85 5
61 86 1
61 87 3
61 88 4
61 89 1
61 90 5
61 91 4
61 92 3
61 93 3
61 94 1
61 95 2
61 96 1
61 97 5
61 98 2
61 99 1
61 100 5
62 63 5
62 64 5
62 65 5
62 66 5
62 67 2
62 68 4
62 69 3
62 70 1
62 71 1
62 72 5
62 73 2
62 74 5
62 75 4
62 76 1
62 77 4
62 78 5
62 79 5
62 80 5
62 81 1
62 82 3
62 83 3
62 84 4
62 85 4
62 86 1
62 87 2
62 88 4
62 89 2
62 90 1
62 91 2
62 92 1
62 93 5
62 94 1
62 95 1
62 96 4
62 97 2
62 98 2
62 99 4
62 100 1
63 64 1
63 65 5
63 66 2
63 67 1
63 68 3
63 69 1
63 70 2
63 71 2
63 72 4
63 73 1
63 74 4
63 75 1
63 76 1
63 77 4
63 78 5
63 79 5
63 80 4
63 81 5
63 82 3
63 83 3
63 84 3
63 85 5
63 86 3
63 87 3
63 88 4
63 89 2
63 90 4
63 91 3
63 92 1
63 93 1
63 94 2
63 95 3
63 96 4
63 97 3
63 98 1
63 99 2
63 100 5
64 65 1
64 66 3
64 67 5
64 68 5
64 69 2
64 70 1
64 71 1
64 72 5
64 73 5
64 74 3
64 75 3
64 76 5
64 77 5
64 78 1
64 79 3
64 80 2
64 81 3
64 82 5
64 83 4
64 84 1
64 85 2
64 86 2
64 87 4
64 88 3
64 89 2
64 90 4
64 91 1
64 92 5
64 93 3
64 94 1
64 95 2
64 96 4
64 97 2
64 98 2
64 99 5
64 100 5
65 66 2
65 67 2
65 68 3
65 69 2
65 70 5
65 71 2
65 72 1
65 73 3
65 74 1
65 75 1
65 76 5
65 77 1
65 78 4
65 79 2
65 80 1
65 81 1
65 82 1
65 83 3
65 84 4
65 85 1
65 86 5
65 87 4
65 88 1
65 89 4
65 90 1
65 91 3
65 92 2
65 93 5
65 94 3
65 95 4
65 96 2
65 97 4
65 98 2
65 99 4
65 100 4
66 67 3
66 68 3
66 69 1
66 70 2
66 71 2
66 72 2
66 73 2
66 74 2
66 75 2
66 76 4
66 77 5
66 78 2
66 79 1
66 80 1
66 81 1
66 82 5
66 83 1
66 84 2
66 85 1
66 86 4
66 87 5
66 88 3
66 89 5
66 90 4
66 91 1
66 92 2
66 93 1
66 94 1
66 95 4
66 96 4
66 97 5
66 98 4
66 99 3
66 100 2
67 68 5
67 69 2
67 70 1
67 71 2
67 72 4
67 73 5
67 74 5
67 75 1
67 76 1
67 77 1
67 78 1
67 79 1
67 80 5
67 81 4
67 82 1
67 83 5
67 84 3
67 85 1
67 86 1
67 87 1
67 88 3
67 89 2
67 90 2
67 91 4
67 92 2
67 93 3
67 94 2
67 95 2
67 96 5
67 97 5
67 98 4
67 99 1
67 100 2
68 69 5
68 70 1
68 71 3
68 72 2
68 73 4
68 74 3
68 75 2
68 76 1
68 77 1
68 78 1
68 79 4
68 80 1
68 81 3
68 82 2
68 83 3
68 84 1
68 85 1
68 86 3
68 87 4
68 88 4
68 89 5
68 90 3
68 91 3
68 92 3
68 93 5
68 94 2
68 95 4
68 96 1
68 97 5
68 98 5
68 99 2
68 100 5
69 70 3
69 71 5
69 72 1
69 73 5
69 74 4
69 75 4
69 76 3
69 77 5
69 78 2
69 79 4
69 80 1
69 81 5
69 82 2
69 83 3
69 84 2
69 85 4
69 86 3
69 87 2
69 88 5
69 89 5
69 90 4
69 91 2
69 92 3
69 93 4
69 94 5
69 95 3
69 96 4
69 97 3
69 98 5
69 99 3
69 100 1
70 71 2
70 72 5
70 73 3
70 74 2
70 75 3
70 76 4
70 77 5
70 78 4
70 79 5
70 80 2
70 81 3
70 82 2
70 83 3
70 84 5
70 85 5
70 86 1
70 87 1
70 88 3
70 89 4
70 90 3
70 91 1
70 92 2
70 93 1
70 94 3
70 95 5
70 96 4
70 97 4
70 98 5
70 99 5
70 100 1
71 72 5
71 73 2
71 74 1
71 75 5
71 76 3
71 77 3
71 78 1
71 79 4
71 80 4
71 81 2
71 82 2
71 83 4
71 84 3
71 85 3
71 86 4
71 87 1
71 88 3
71 89 3
71 90 2
71 91 1
71 92 4
71 93 2
71 94 2
71 95 1
71 96 1
71 97 5
71 98 4
71 99 4
71 100 4
72 73 1
72 74 3
72 75 2
72 76 2
72 77 4
72 78 2
72 79 1
72 80 5
72 81 5
72 82 5
72 83 2
72 84 2
72 85 1
72 86 5
72 87 5
72 88 3
72 89 5
72 90 2
72 91 2
72 92 3
72 93 1
72 94 1
72 95 4
72 96 1
72 97 4
72 98 5
72 99 5
72 100 4
73 74 3
73 75 1
73 76 3
73 77 4
73 78 2
73 79 3
73 80 4
73 81 4
73 82 5
73 83 4
73 84 3
73 85 4
73 86 5
73 87 2
73 88 3
73 89 1
73 90 3
73 91 1
73 92 2
73 93 3
73 94 4
73 95 5
73 96 1
73 97 3
73 98 1
73 99 1
73 100 1
74 75 1
74 76 1
74 77 3
74 78 4
74 79 3
74 80 2
74 81 5
74 82 4
74 83 1
74 84 3
74 85 1
74 86 5
74 87 5
74 88 2
74 89 2
74 90 5
74 91 5
74 92 4
74 93 2
74 94 1
74 95 4
74 96 4
74 97 3
74 98 2
74 99 1
74 100 5
75 76 4
75 77 4
75 78 1
75 79 3
75 80 2
75 81 3
75 82 4
75 83 5
75 84 3
75 85 1
75 86 5
75 87 2
75 88 1
75 89 2
75 90 3
75 91 1
75 92 4
75 93 2
75 94 1
75 95 5
75 96 4
75 97 2
75 98 4
75 99 3
75 100 4
76 77 3
76 78 4
76 79 4
76 80 2
76 81 2
76 82 1
76 83 3
76 84 5
76 85 1
76 86 5
76 87 5
76 88 4
76 89 2
76 90 3
76 91 3
76 92 5
76 93 5
76 94 1
76 95 5
76 96 1
76 97 2
76 98 3
76 99 1
76 100 4
77 78 2
77 79 3
77 80 2
77 81 2
77 82 3
77 83 4
77 84 5
77 85 1
77 86 3
77 87 5
77 88 2
77 89 1
77 90 3
77 91 2
77 92 1
77 93 4
77 94 5
77 95 2
77 96 3
77 97 4
77 98 3
77 99 4
77 100 4
78 79 5
78 80 5
78 81 1
78 82 2
78 83 1
78 84 2
78 85 3
78 86 5
78 87 1
78 88 4
78 89 4
78 90 2
78 91 2
78 92 2
78 93 3
78 94 2
78 95 1
78 96 1
78 97 3
78 98 1
78 99 5
78 100 3
79 80 1
79 81 5
79 82 1
79 83 2
79 84 1
79 85 1
79 86 1
79 87 1
79 88 1
79 89 3
79 90 3
79 91 1
79 92 5
79 93 5
79 94 5
79 95 1
79 96 1
79 97 4
79 98 3
79 99 2
79 100 3
80 81 1
80 82 4
80 83 4
80 84 4
80 85 3
80 86 2
80 87 5
80 88 5
80 89 1
80 90 1
80 91 1
80 92 3
80 93 5
80 94 4
80 95 5
80 96 5
80 97 5
80 98 2
80 99 5
80 100 1
81 82 2
81 83 2
81 84 1
81 85 2
81 86 3
81 87 3
81 88 5
81 89 5
81 90 4
81 91 1
81 92 4
81 93 5
81 94 3
81 95 4
81 96 5
81 97 2
81 98 2
81 99 1
81 100 1
82 83 2
82 84 5
82 85 2
82 86 2
82 87 2
82 88 3
82 89 1
82 90 5
82 91 2
82 92 4
82 93 1
82 94 1
82 95 2
82 96 3
82 97 5
82 98 2
82 99 1
82 100 5
83 84 2
83 85 4
83 86 2
83 87 2
83 88 3
83 89 2
83 90 3
83 91 2
83 92 3
83 93 4
83 94 1
83 95 5
83 96 3
83 97 2
83 98 1
83 99 5
83 100 3
84 85 5
84 86 2
84 87 1
84 88 2
84 89 1
84 90 1
84 91 4
84 92 2
84 93 4
84 94 1
84 95 5
84 96 4
84 97 2
84 98 3
84 99 5
84 100 5
85 86 2
85 87 3
85 88 3
85 89 4
85 90 1
85 91 1
85 92 1
85 93 4
85 94 4
85 95 2
85 96 4
85 97 2
85 98 3
85 99 5
85 100 4
86 87 3
86 88 5
86 89 2
86 90 3
86 91 1
86 92 1
86 93 2
86 94 2
86 95 5
86 96 2
86 97 3
86 98 4
86 99 3
86 100 5
87 88 1
87 89 4
87 90 2
87 91 2
87 92 1
87 93 4
87 94 1
87 95 5
87 96 4
87 97 5
87 98 3
87 99 2
87 100 3
88 89 1
88 90 1
88 91 1
88 92 1
88 93 4
88 94 2
88 95 2
88 96 5
88 97 2
88 98 4
88 99 2
88 100 4
89 90 3
89 91 1
89 92 1
89 93 1
89 94 3
89 95 5
89 96 4
89 97 2
89 98 2
89 99 3
89 100 1
90 91 5
90 92 1
90 93 2
90 94 1
90 95 1
90 96 2
90 97 4
90 98 4
90 99 5
90 100 3
91 92 4
91 93 1
91 94 4
91 95 2
91 96 3
91 97 2
91 98 3
91 99 1
91 100 1
92 93 5
92 94 5
92 95 3
92 96 1
92 97 5
92 98 4
92 99 5
92 100 2
93 94 4
93 95 3
93 96 2
93 97 5
93 98 1
93 99 3
93 100 3
94 95 4
94 96 1
94 97 1
94 98 3
94 99 4
94 100 2
95 96 3
95 97 5
95 98 5
95 99 2
95 100 1
96 97 1
96 98 3
96 99 2
96 100 4
97 98 2
97 99 4
97 100 4
98 99 1
98 100 4
99 100 5
